language Essence 1.3

letting valid be
        [[{function(4 --> (6, 9), 5 --> (6, 9))},
          {function(4 --> (6, 9), 5 --> (6, 9))}; int(5, 9)],
         [{function(4 --> (6, 9), 5 --> (6, 9))},
          {function(4 --> (6, 9), 5 --> (6, 9))}; int(5, 9)]; int(1, 3)]
